;; produced by cvc4_16.drv ;;
(set-logic AUFBVFPDTNIRA)
(set-info :smt-lib-version 2.6)
;;; generated by SMT-LIB2 driver
;;; SMT-LIB2 driver: bit-vectors, common part
;;; SMT-LIB2: integer arithmetic
(declare-sort string 0)

(declare-datatypes ((tuple0 0))
(((Tuple0))))
(declare-sort us_private 0)

(declare-fun private__bool_eq (us_private us_private) Bool)

(declare-const us_null_ext__ us_private)

(declare-sort us_type_of_heap 0)

(declare-datatypes ((us_type_of_heap__ref 0))
(((us_type_of_heap__refqtmk (us_type_of_heap__content us_type_of_heap)))))
(declare-sort us_image 0)

(declare-datatypes ((int__ref 0))
(((int__refqtmk (int__content Int)))))
(declare-datatypes ((bool__ref 0))
(((bool__refqtmk (bool__content Bool)))))
(declare-datatypes ((us_fixed__ref 0))
(((us_fixed__refqtmk (us_fixed__content Int)))))
(declare-datatypes ((real__ref 0))
(((real__refqtmk (real__content Real)))))
(declare-datatypes ((us_private__ref 0))
(((us_private__refqtmk (us_private__content us_private)))))
(define-fun int__ref___projection ((a int__ref)) Int (int__content a))

(define-fun us_fixed__ref___projection ((a us_fixed__ref)) Int (us_fixed__content
                                                               a))

(define-fun bool__ref___projection ((a bool__ref)) Bool (bool__content a))

(define-fun real__ref___projection ((a real__ref)) Real (real__content a))

(define-fun us_private__ref___projection ((a us_private__ref)) us_private 
  (us_private__content a))

(define-fun in_range ((x Int)) Bool (or (= x 0) (= x 1)))

(declare-fun attr__ATTRIBUTE_IMAGE (Bool) us_image)

(declare-fun attr__ATTRIBUTE_VALUE__pre_check (us_image) Bool)

(declare-fun attr__ATTRIBUTE_VALUE (us_image) Bool)

(declare-sort integer 0)

(declare-fun integerqtint (integer) Int)

;; integer'axiom
  (assert
  (forall ((i integer))
  (and (<= (- 2147483648) (integerqtint i)) (<= (integerqtint i) 2147483647))))

(define-fun in_range1 ((x Int)) Bool (and (<= (- 2147483648) x)
                                     (<= x 2147483647)))

(declare-fun attr__ATTRIBUTE_IMAGE1 (Int) us_image)

(declare-fun attr__ATTRIBUTE_VALUE__pre_check1 (us_image) Bool)

(declare-fun attr__ATTRIBUTE_VALUE1 (us_image) Int)

(declare-fun user_eq (integer integer) Bool)

(declare-const dummy integer)

(declare-datatypes ((integer__ref 0))
(((integer__refqtmk (integer__content integer)))))
(define-fun integer__ref_integer__content__projection ((a integer__ref)) integer 
  (integer__content a))

(declare-sort natural 0)

(declare-fun naturalqtint (natural) Int)

;; natural'axiom
  (assert
  (forall ((i natural))
  (and (<= 0 (naturalqtint i)) (<= (naturalqtint i) 2147483647))))

(define-fun in_range2 ((x Int)) Bool (and (<= 0 x) (<= x 2147483647)))

(declare-fun attr__ATTRIBUTE_IMAGE2 (Int) us_image)

(declare-fun attr__ATTRIBUTE_VALUE__pre_check2 (us_image) Bool)

(declare-fun attr__ATTRIBUTE_VALUE2 (us_image) Int)

(declare-fun user_eq1 (natural natural) Bool)

(declare-const dummy1 natural)

(declare-datatypes ((natural__ref 0))
(((natural__refqtmk (natural__content natural)))))
(define-fun natural__ref_natural__content__projection ((a natural__ref)) natural 
  (natural__content a))

(define-fun dynamic_invariant ((temp___expr_39 Int) (temp___is_init_35 Bool)
  (temp___skip_constant_36 Bool) (temp___do_toplevel_37 Bool)
  (temp___do_typ_inv_38 Bool)) Bool (=>
                                    (or (= temp___is_init_35 true)
                                    (<= 0 2147483647)) (in_range2
                                    temp___expr_39)))

(declare-sort us_main_type 0)

(declare-fun us_main_eq (us_main_type us_main_type) Bool)

(declare-sort us_rep 0)

(declare-fun bool_eq (us_rep us_rep) Bool)

(declare-const value__size Int)

(declare-const object__size Int)

(declare-const alignment Int)

;; value__size_axiom
  (assert (<= 0 value__size))

;; object__size_axiom
  (assert (<= 0 object__size))

;; alignment_axiom
  (assert (<= 0 alignment))

(declare-fun user_eq2 (us_rep us_rep) Bool)

(declare-const dummy2 us_rep)

(declare-datatypes ((sequence__ref 0))
(((sequence__refqtmk (sequence__content us_rep)))))
(define-fun sequence__ref_sequence__content__projection ((a sequence__ref)) us_rep 
  (sequence__content a))

(declare-fun length (us_rep) Int)

(declare-fun length__function_guard (Int us_rep) Bool)

(define-fun length1 ((x Int) (y Int)) Int (ite (<= x y) (+ (- y x) 1) 0))

(define-fun last ((container us_rep)) Int (+ 0 (length container)))

(declare-fun last__function_guard (Int us_rep) Bool)

(declare-fun get (us_rep Int) Int)

(declare-fun get__function_guard (Int us_rep Int) Bool)

(define-fun oeq ((left us_rep)
  (right us_rep)) Bool (and (= (length left) (length right)) (ite (forall
                                                                  ((n Int))
                                                                  (=>
                                                                  (and
                                                                  (<= 1 n)
                                                                  (<= n 
                                                                  (last left)))
                                                                  (= 
                                                                  (get left
                                                                  n) 
                                                                  (get right
                                                                  n))))
                                                             true false)))

(declare-fun oeq__function_guard (Bool us_rep us_rep) Bool)

;; user_eq__def_axiom
  (assert
  (forall ((a us_rep) (b us_rep))
  (! (= (user_eq2 a b) (oeq a b)) :pattern ((user_eq2 a b)) )))

(define-fun default_initial_assumption ((temp___expr_221 us_rep)
  (temp___skip_top_level_222 Bool)) Bool (=>
                                         (not
                                         (= temp___skip_top_level_222 true))
                                         (= (length temp___expr_221) 0)))

(declare-sort count_type 0)

(declare-fun count_typeqtint (count_type) Int)

;; count_type'axiom
  (assert
  (forall ((i count_type))
  (and (<= 0 (count_typeqtint i)) (<= (count_typeqtint i) 2147483647))))

(define-fun in_range3 ((x Int)) Bool (and (<= 0 x) (<= x 2147483647)))

(declare-fun attr__ATTRIBUTE_IMAGE3 (Int) us_image)

(declare-fun attr__ATTRIBUTE_VALUE__pre_check3 (us_image) Bool)

(declare-fun attr__ATTRIBUTE_VALUE3 (us_image) Int)

(declare-fun user_eq3 (count_type count_type) Bool)

(declare-const dummy3 count_type)

(declare-datatypes ((count_type__ref 0))
(((count_type__refqtmk (count_type__content count_type)))))
(define-fun count_type__ref_count_type__content__projection ((a count_type__ref)) count_type 
  (count_type__content a))

(define-fun dynamic_invariant1 ((temp___expr_228 Int)
  (temp___is_init_224 Bool) (temp___skip_constant_225 Bool)
  (temp___do_toplevel_226 Bool)
  (temp___do_typ_inv_227 Bool)) Bool (=>
                                     (or (= temp___is_init_224 true)
                                     (<= 0 2147483647)) (in_range3
                                     temp___expr_228)))

;; length__post_axiom
  (assert
  (forall ((container us_rep))
  (! (let ((result (length container)))
     (and (<= (+ 0 result) 100) (dynamic_invariant1 result true false true
     true))) :pattern ((length container)) )))

(declare-sort extended_index 0)

(declare-fun extended_indexqtint (extended_index) Int)

;; extended_index'axiom
  (assert
  (forall ((i extended_index))
  (and (<= 0 (extended_indexqtint i)) (<= (extended_indexqtint i) 100))))

(define-fun in_range4 ((x Int)) Bool (and (<= 0 x) (<= x 100)))

(declare-fun attr__ATTRIBUTE_IMAGE4 (Int) us_image)

(declare-fun attr__ATTRIBUTE_VALUE__pre_check4 (us_image) Bool)

(declare-fun attr__ATTRIBUTE_VALUE4 (us_image) Int)

(declare-fun user_eq4 (extended_index extended_index) Bool)

(declare-const dummy4 extended_index)

(declare-datatypes ((extended_index__ref 0))
(((extended_index__refqtmk (extended_index__content extended_index)))))
(define-fun extended_index__ref_extended_index__content__projection ((a extended_index__ref)) extended_index 
  (extended_index__content a))

(define-fun dynamic_invariant2 ((temp___expr_213 Int)
  (temp___is_init_209 Bool) (temp___skip_constant_210 Bool)
  (temp___do_toplevel_211 Bool)
  (temp___do_typ_inv_212 Bool)) Bool (=>
                                     (or (= temp___is_init_209 true)
                                     (<= 0 100)) (in_range4 temp___expr_213)))

(declare-sort element_type 0)

(declare-fun element_typeqtint (element_type) Int)

;; element_type'axiom
  (assert
  (forall ((i element_type))
  (and (<= 0 (element_typeqtint i)) (<= (element_typeqtint i) 2147483647))))

(define-fun in_range5 ((x Int)) Bool (and (<= 0 x) (<= x 2147483647)))

(declare-fun attr__ATTRIBUTE_IMAGE5 (Int) us_image)

(declare-fun attr__ATTRIBUTE_VALUE__pre_check5 (us_image) Bool)

(declare-fun attr__ATTRIBUTE_VALUE5 (us_image) Int)

(declare-fun user_eq5 (element_type element_type) Bool)

(declare-const dummy5 element_type)

(declare-datatypes ((element_type__ref 0))
(((element_type__refqtmk (element_type__content element_type)))))
(define-fun element_type__ref_element_type__content__projection ((a element_type__ref)) element_type 
  (element_type__content a))

(define-fun dynamic_invariant3 ((temp___expr_206 Int)
  (temp___is_init_202 Bool) (temp___skip_constant_203 Bool)
  (temp___do_toplevel_204 Bool)
  (temp___do_typ_inv_205 Bool)) Bool (=>
                                     (or (= temp___is_init_202 true)
                                     (<= 0 2147483647)) (in_range5
                                     temp___expr_206)))

;; get__post_axiom
  (assert
  (forall ((container us_rep))
  (forall ((position Int))
  (! (=>
     (and (dynamic_invariant2 position true true true true)
     (and (<= 1 position) (<= position (last container))))
     (dynamic_invariant3 (get container position) true false true true)) :pattern (
  (get container position)) ))))

(declare-const s1 us_rep)

(declare-const attr__ATTRIBUTE_ADDRESS Int)

(declare-const s2 us_rep)

(declare-const attr__ATTRIBUTE_ADDRESS1 Int)

(declare-const e Int)

(declare-const attr__ATTRIBUTE_ADDRESS2 Int)

(define-fun dynamic_invariant4 ((temp___expr_18 Int) (temp___is_init_14 Bool)
  (temp___skip_constant_15 Bool) (temp___do_toplevel_16 Bool)
  (temp___do_typ_inv_17 Bool)) Bool (=>
                                    (or (= temp___is_init_14 true)
                                    (<= (- 2147483648) 2147483647))
                                    (in_range1 temp___expr_18)))

(assert
;; defqtvc
 ;; File "ring_buffer.ads", line 17, characters 0-0
  (not
  (=> (dynamic_invariant e true false true true)
  (let ((o (length s2)))
  (=> (and (dynamic_invariant1 o true false true true) (<= (+ 0 o) 100))
  (let ((o1 (length s1)))
  (=> (and (dynamic_invariant1 o1 true false true true) (<= (+ 0 o1) 100))
  (=> (= o1 (- o 1)) (<= 1 1)))))))))
(check-sat)
